# Lammps script to read in mBuild topologies and perform energy minimization
# Initialization
units           real
boundary        p p p
atom_style      full

# Assume ff info is included in data file
pair_style     lj/cut/coul/cut ${rcut} #modify line from job.sp.r_cut, add coul/long for spcewater
bond_style  harmonic
angle_style harmonic
dihedral_style  opls
read_restart minimized.restart-*
# Line 12 for fix pppm option with spce water
pair_modify shift no tail no
# Line 14 for fix shake option with spce water
neighbor        2.5 bin #skin cutoff

timestep ${tstep}
thermo 1000
thermo_style custom step temp press pe epair emol ke etotal density

variable tsample equal ${T} #kelvin modify from job.sp.temperature
variable psample equal ${P}/101.325 #kPa to atm from job.sp.pressure
# ________________________________________________________________________________________

# Equilibrate npt box
variable startstep equal step
variable t equal temp
variable pressure equal press
variable e equal etotal
variable p equal pe
variable k equal ke
variable d equal density
variable startstep0 equal ${startstep}
variable filename string eqlog${startstep0}.txt
fix output_data all print 1000 "${startstep} ${t} ${pressure} $e $p $k $d" file ${filename} title "step temp press etotal pe ke density"
fix integrator all npt temp ${tsample} ${tsample} 100.0 iso ${psample} ${psample} 1000.0 pchain 10
run 1000000
unfix integrator
write_restart minimized.restart-*
write_restart equilibrated-npt.restart
